
******************************************************************************
This program contains Ipopt, a library for large-scale nonlinear optimization.
 Ipopt is released as open source code under the Eclipse Public License (EPL).
         For more information visit http://projects.coin-or.org/Ipopt
******************************************************************************

This is Ipopt version 3.12.6, running with linear solver ma57.

Number of nonzeros in equality constraint Jacobian...:        6
Number of nonzeros in inequality constraint Jacobian.:        0
Number of nonzeros in Lagrangian Hessian.............:        5

Total number of variables............................:        5
                     variables with only lower bounds:        0
                variables with lower and upper bounds:        0
                     variables with only upper bounds:        0
Total number of equality constraints.................:        2
Total number of inequality constraints...............:        0
        inequality constraints with only lower bounds:        0
   inequality constraints with lower and upper bounds:        0
        inequality constraints with only upper bounds:        0

iter    objective    inf_pr   inf_du lg(mu)  ||d||  lg(rg) alpha_du alpha_pr  ls
   0  3.0000000e+00 1.00e+00 2.00e+00  -1.0 0.00e+00    -  0.00e+00 0.00e+00   0
   1  1.2500000e+00 2.50e-01 1.00e-04  -1.0 1.00e+00  -4.0 1.00e+00 1.00e+00f  1
   2  1.0625000e+00 6.25e-02 3.96e-05  -1.7 2.50e-01  -3.6 1.00e+00 1.00e+00h  1
   3  1.0156250e+00 1.56e-02 5.43e-05  -2.5 1.25e-01  -3.1 1.00e+00 1.00e+00h  1
   4  1.0039062e+00 3.91e-03 7.28e-05  -3.8 6.25e-02  -2.7 1.00e+00 1.00e+00h  1
   5  1.0009766e+00 9.77e-04 9.72e-05  -3.8 3.12e-02  -2.3 1.00e+00 1.00e+00h  1
   6  1.0002441e+00 2.44e-04 1.30e-04  -5.7 1.56e-02  -1.9 1.00e+00 1.00e+00h  1
   7  1.0000610e+00 6.10e-05 1.73e-04  -5.7 7.81e-03  -1.4 1.00e+00 1.00e+00h  1
   8  1.0000153e+00 1.53e-05 2.31e-04  -5.7 3.91e-03  -1.0 1.00e+00 1.00e+00h  1
   9  1.0000038e+00 3.81e-06 3.07e-04  -5.7 1.95e-03  -0.6 1.00e+00 1.00e+00h  1
iter    objective    inf_pr   inf_du lg(mu)  ||d||  lg(rg) alpha_du alpha_pr  ls
  10  1.0000010e+00 9.54e-07 4.10e-04  -5.7 9.77e-04  -0.2 1.00e+00 1.00e+00h  1
  11  1.0000002e+00 2.38e-07 5.46e-04  -5.7 4.88e-04   0.3 1.00e+00 1.00e+00h  1
  12  1.0000001e+00 5.96e-08 7.29e-04  -5.7 2.44e-04   0.7 1.00e+00 1.00e+00h  1
  13  1.0000000e+00 1.49e-08 9.71e-04  -5.7 1.22e-04   1.1 1.00e+00 1.00e+00h  1
  14  1.0000000e+00 3.73e-09 1.30e-03  -5.7 6.10e-05   1.5 1.00e+00 1.00e+00h  1
  15  1.0000000e+00 9.31e-10 1.73e-03  -5.7 3.05e-05   2.0 1.00e+00 1.00e+00h  1
  16  1.0000000e+00 2.33e-10 2.30e-03  -5.7 1.53e-05   2.4 1.00e+00 1.00e+00h  1
  17  1.0000000e+00 5.82e-11 3.07e-03  -5.7 7.63e-06   2.8 1.00e+00 1.00e+00h  1
  18  1.0000000e+00 1.46e-11 4.09e-03  -5.7 3.81e-06   3.2 1.00e+00 1.00e+00h  1
  19  1.0000000e+00 3.64e-12 5.46e-03  -5.7 1.91e-06   3.7 1.00e+00 1.00e+00h  1
iter    objective    inf_pr   inf_du lg(mu)  ||d||  lg(rg) alpha_du alpha_pr  ls
  20  1.0000000e+00 9.09e-13 7.28e-03  -5.7 9.54e-07   4.1 1.00e+00 1.00e+00h  1
  21  1.0000000e+00 2.27e-13 9.70e-03  -5.7 4.77e-07   4.5 1.00e+00 1.00e+00h  1
  22  1.0000000e+00 5.68e-14 1.29e-02  -5.7 2.38e-07   4.9 1.00e+00 1.00e+00h  1
  23  1.0000000e+00 1.42e-14 1.72e-02  -5.7 1.19e-07   5.4 1.00e+00 1.00e+00h  1
  24  1.0000000e+00 3.55e-15 2.30e-02  -8.6 5.96e-08   5.8 1.00e+00 1.00e+00h  1
  25  1.0000000e+00 1.01e-15 1.87e-02  -8.6 1.12e-08   6.2 1.00e+00 1.00e+00h  1
  26  1.0000000e+00 7.65e-16 1.72e-02  -8.6 3.86e-09   6.6 1.00e+00 1.00e+00h  1
  27  1.0000000e+00 5.86e-16 1.37e-02  -8.6 9.19e-09   6.2 1.00e+00 1.00e+00h  1
  28  1.0000000e+00 3.74e-16 1.24e-02  -8.6 3.14e-09   6.6 1.00e+00 1.00e+00h  1
  29  1.0000000e+00 2.90e-16 9.63e-03  -8.6 7.29e-09   6.1 1.00e+00 1.00e+00h  1
iter    objective    inf_pr   inf_du lg(mu)  ||d||  lg(rg) alpha_du alpha_pr  ls
  30  1.0000000e+00 1.73e-16 8.68e-03  -8.6 2.46e-09   6.5 1.00e+00 1.00e+00h  1
  31  1.0000000e+00 1.76e-16 6.53e-03  -8.6 5.56e-09   6.1 1.00e+00 1.00e+00h  1
  32  1.0000000e+00 1.16e-16 5.82e-03  -8.6 1.86e-09   6.5 1.00e+00 1.00e+00h  1
  33  1.0000000e+00 1.01e-16 4.25e-03  -8.6 4.07e-09   6.0 1.00e+00 1.00e+00h  1
  34  1.0000000e+00 9.34e-17 3.73e-03  -8.6 1.34e-09   6.4 1.00e+00 1.00e+00h  1
  35  1.0000000e+00 4.66e-17 2.63e-03  -8.6 2.84e-09   6.0 1.00e+00 1.00e+00h  1
  36  1.0000000e+00 3.49e-17 2.28e-03  -8.6 9.21e-10   6.4 1.00e+00 1.00e+00h  1
  37  1.0000000e+00 1.62e-17 1.55e-03  -8.6 1.88e-09   5.9 1.00e+00 1.00e+00h  1
  38  1.0000000e+00 1.17e-17 1.32e-03  -8.6 6.00e-10   6.3 1.00e+00 1.00e+00h  1
  39  1.0000000e+00 1.03e-17 1.24e-03  -8.6 2.11e-10   6.8 1.00e+00 1.00e+00h  1
iter    objective    inf_pr   inf_du lg(mu)  ||d||  lg(rg) alpha_du alpha_pr  ls
  40  1.0000000e+00 7.19e-18 1.03e-03  -8.6 5.29e-10   6.3 1.00e+00 1.00e+00h  1
  41  1.0000000e+00 6.24e-18 9.64e-04  -8.6 1.85e-10   6.7 1.00e+00 1.00e+00h  1
  42  1.0000000e+00 4.18e-18 7.89e-04  -8.6 4.54e-10   6.2 1.00e+00 1.00e+00h  1
  43  1.0000000e+00 3.56e-18 7.28e-04  -8.6 1.57e-10   6.7 1.00e+00 1.00e+00h  1
  44  1.0000000e+00 2.28e-18 5.82e-04  -8.6 3.77e-10   6.2 1.00e+00 1.00e+00h  1
  45  1.0000000e+00 1.90e-18 5.33e-04  -8.6 1.29e-10   6.6 1.00e+00 1.00e+00h  1
  46  1.0000000e+00 1.16e-18 4.16e-04  -8.6 3.03e-10   6.1 1.00e+00 1.00e+00h  1
  47  1.0000000e+00 9.50e-19 3.76e-04  -8.6 1.03e-10   6.6 1.00e+00 1.00e+00h  1
  48  1.0000000e+00 5.48e-19 2.86e-04  -8.6 2.34e-10   6.1 1.00e+00 1.00e+00h  1
  49  1.0000000e+00 4.38e-19 2.55e-04  -8.6 7.85e-11   6.5 1.00e+00 1.00e+00h  1

Number of Iterations....: 49

                                   (scaled)                 (unscaled)
Objective...............:   1.0000000000000000e+00    1.0000000000000000e+00
Dual infeasibility......:   2.5546198360989645e-04    2.5546198360989645e-04
Constraint violation....:   4.3832637730852319e-19    4.3832637730852319e-19
Complementarity.........:   0.0000000000000000e+00    0.0000000000000000e+00
Overall NLP error.......:   8.8274809561393211e-08    2.5546198360989645e-04


Number of objective function evaluations             = 50
Number of objective gradient evaluations             = 50
Number of equality constraint evaluations            = 50
Number of inequality constraint evaluations          = 0
Number of equality constraint Jacobian evaluations   = 50
Number of inequality constraint Jacobian evaluations = 0
Number of Lagrangian Hessian evaluations             = 49
Total CPU secs in IPOPT (w/o function evaluations)   =      0.010
Total CPU secs in NLP function evaluations           =      0.000

EXIT: Solved To Acceptable Level.

************************ CUTEst statistics ************************


 Package used            :  IPOPT
 Problem                 :  BT8       
 # variables             =               5
 # constraints           =               2
 # objective functions   =        0.1010000E+03
 # objective gradients   =        0.5100000E+02
 # objective Hessians    =        0.5000000E+02
 # Hessian-vector prdct  =        0.0000000E+00
 # constraints functions =        0.1020000E+03
 # constraints gradients =        0.5200000E+02
 # constraints Hessians  =        0.5000000E+02
 Exit code               =               1
 Final f                 =   0.1000000E+01
 Set up time             =            0.00 seconds
 Solve time              =            0.06 seconds


******************************************************************

System Time =       0.0160000008 s.
